
  12    4
  10   10   10   10

   0   0   0   0   0   5 2 3 4 5 11 
   8  10  10  10  10   3 10 9 6 
   3  10  10  10  10   3 9 8 7 
   5  10  10  10  10   3 9 8 7 
   8  10  10  10  10   2 10 8 
   8  10  10  10  10   1 7 
   4  10  10  10  10   1 12
   1  10  10  10  10   1 12
   8  10  10  10  10   1 12
   7  10  10  10  10   1 12
   9  10  10  10  10   1 12
   0   0   0   0   0   0 
